15 40
25
7 12 8 9
7 7 5 21
1 7 11 33
1 5 2 35
2 3 0 25
2 6 0 14
2 7 0 0
2 5 0 20
1 3 8 6
1 6 8 0
6 12 5 28
6 9 9 0
2 12 0 28
2 7 0 7
3 10 2 25
1 4 12 26
1 5 11 28
3 16 2 9
3 5 5 0
2 4 13 26
2 5 3 35
3 10 12 30
3 9 2 0
3 16 5 5
3 5 12 21
